NAME: Random_90_4
ELLAPSED_TIME_(ms): 1
TOUR_SIZE: 2654.707
TOUR_SECTION
0
5
59
23
56
73
30
46
10
3
2
26
6
57
38
70
24
35
54
15
40
66
71
86
89
88
12
69
1
63
55
11
16
32
37
84
28
22
52
75
62
48
81
68
78
25
31
58
44
39
50
41
8
18
9
13
60
51
80
7
85
79
21
20
77
49
82
34
74
29
47
36
87
43
76
33
67
42
53
4
14
83
61
45
17
27
72
64
19
65
0
EOF
